Route #1: 139 74 147 151 56 4 59 118 83
Route #2: 132 3 122 51
Route #3: 94 108 46 133 19 116
Route #4: 148 152 12 126 31 140
Route #5: 119 91 100 70 96 22 137 144 47 149 87 41 105 39 110 49 129
Route #6: 130 33 146 90 8 45 117
Route #7: 14 66
Route #8: 1 89
Route #9: 23 40
Route #10: 32 67 35 106 150 92 99 86 9 111 131 65
Route #11: 15 125 29 141
Route #12: 5 60 28 109
Route #13: 123 136 79 24 80 61
Route #14: 107 62 101 30 78 120
Route #15: 27
Route #16: 113 13 145 135 44 143
Route #17: 11 84
Route #18: 16 71
Route #19: 69 7 58
Route #20: 115 6 75 38
Route #21: 17 134
Route #22: 25
Route #23: 112 26 121 55 93 52 138 68 63
Route #24: 53 2 36 124 57 104 64 42 95
Route #25: 82 21 37 73 142 54 77 128
Route #26: 48 10 97 85 50 98
Route #27: 127 18 114 81
Route #28: 76 43 72 20 103 34 88 102
Cost 32145
